c nIsolatedPIs 0
c maxPI 32
p cnf 166 403
c gate 33 11 27 0
11 -33 0
27 -33 0
-11 -27 33 0
c gate 34 10 26 0
10 -34 0
26 -34 0
-10 -26 34 0
c gate 35 -7 -23 0
-7 -35 0
-23 -35 0
7 23 35 0
c gate 36 -8 -24 0
-8 -36 0
-24 -36 0
8 24 36 0
c gate 37 -35 -36 0
-35 -37 0
-36 -37 0
35 36 37 0
c gate 38 9 25 0
9 -38 0
25 -38 0
-9 -25 38 0
c gate 39 8 24 0
8 -39 0
24 -39 0
-8 -24 39 0
c gate 40 -38 -39 0
-38 -40 0
-39 -40 0
38 39 40 0
c gate 41 -37 40 0
-37 -41 0
40 -41 0
37 -40 41 0
c gate 42 -9 -25 0
-9 -42 0
-25 -42 0
9 25 42 0
c gate 43 -10 -26 0
-10 -43 0
-26 -43 0
10 26 43 0
c gate 44 -34 -43 0
-34 -44 0
-43 -44 0
34 43 44 0
c gate 45 -42 44 0
-42 -45 0
44 -45 0
42 -44 45 0
c gate 46 -41 45 0
-41 -46 0
45 -46 0
41 -45 46 0
c gate 47 -34 -46 0
-34 -47 0
-46 -47 0
34 46 47 0
c gate 48 -2 -18 0
-2 -48 0
-18 -48 0
2 18 48 0
c gate 49 1 17 0
1 -49 0
17 -49 0
-1 -17 49 0
c gate 50 -48 49 0
-48 -50 0
49 -50 0
48 -49 50 0
c gate 51 3 19 0
3 -51 0
19 -51 0
-3 -19 51 0
c gate 52 2 18 0
2 -52 0
18 -52 0
-2 -18 52 0
c gate 53 -51 -52 0
-51 -53 0
-52 -53 0
51 52 53 0
c gate 54 -50 53 0
-50 -54 0
53 -54 0
50 -53 54 0
c gate 55 -4 -20 0
-4 -55 0
-20 -55 0
4 20 55 0
c gate 56 -3 -19 0
-3 -56 0
-19 -56 0
3 19 56 0
c gate 57 -55 -56 0
-55 -57 0
-56 -57 0
55 56 57 0
c gate 58 -54 57 0
-54 -58 0
57 -58 0
54 -57 58 0
c gate 59 5 21 0
5 -59 0
21 -59 0
-5 -21 59 0
c gate 60 4 20 0
4 -60 0
20 -60 0
-4 -20 60 0
c gate 61 -59 -60 0
-59 -61 0
-60 -61 0
59 60 61 0
c gate 62 -58 61 0
-58 -62 0
61 -62 0
58 -61 62 0
c gate 63 -6 -22 0
-6 -63 0
-22 -63 0
6 22 63 0
c gate 64 -5 -21 0
-5 -64 0
-21 -64 0
5 21 64 0
c gate 65 -63 -64 0
-63 -65 0
-64 -65 0
63 64 65 0
c gate 66 -62 65 0
-62 -66 0
65 -66 0
62 -65 66 0
c gate 67 6 22 0
6 -67 0
22 -67 0
-6 -22 67 0
c gate 68 7 23 0
7 -68 0
23 -68 0
-7 -23 68 0
c gate 69 -67 -68 0
-67 -69 0
-68 -69 0
67 68 69 0
c gate 70 -66 69 0
-66 -70 0
69 -70 0
66 -69 70 0
c gate 71 40 46 0
40 -71 0
46 -71 0
-40 -46 71 0
c gate 72 70 71 0
70 -72 0
71 -72 0
-70 -71 72 0
c gate 73 -43 -72 0
-43 -73 0
-72 -73 0
43 72 73 0
c gate 74 -47 73 0
-47 -74 0
73 -74 0
47 -73 74 0
c gate 75 -33 -74 0
-33 -75 0
-74 -75 0
33 74 75 0
c gate 76 -11 -27 0
-11 -76 0
-27 -76 0
11 27 76 0
c gate 77 -12 -28 0
-12 -77 0
-28 -77 0
12 28 77 0
c gate 78 12 28 0
12 -78 0
28 -78 0
-12 -28 78 0
c gate 79 -77 -78 0
-77 -79 0
-78 -79 0
77 78 79 0
c gate 80 -76 79 0
-76 -80 0
79 -80 0
76 -79 80 0
c gate 81 -75 80 0
-75 -81 0
80 -81 0
75 -80 81 0
c gate 82 -13 -29 0
-13 -82 0
-29 -82 0
13 29 82 0
c gate 83 13 29 0
13 -83 0
29 -83 0
-13 -29 83 0
c gate 84 -82 -83 0
-82 -84 0
-83 -84 0
82 83 84 0
c gate 85 81 84 0
81 -85 0
84 -85 0
-81 -84 85 0
c gate 86 81 -84 0
81 -86 0
-84 -86 0
-81 84 86 0
c gate 87 -47 80 0
-47 -87 0
80 -87 0
47 -80 87 0
c gate 88 75 87 0
75 -88 0
87 -88 0
-75 -87 88 0
c gate 89 -86 -88 0
-86 -89 0
-88 -89 0
86 88 89 0
c gate 90 -35 70 0
-35 -90 0
70 -90 0
35 -70 90 0
c gate 91 -81 -90 0
-81 -91 0
-90 -91 0
81 90 91 0
c gate 92 -38 -42 0
-38 -92 0
-42 -92 0
38 42 92 0
c gate 93 -1 17 0
-1 -93 0
17 -93 0
1 -17 93 0
c gate 94 18 93 0
18 -94 0
93 -94 0
-18 -93 94 0
c gate 95 2 -94 0
2 -95 0
-94 -95 0
-2 94 95 0
c gate 96 -18 -93 0
-18 -96 0
-93 -96 0
18 93 96 0
c gate 97 3 -19 0
3 -97 0
-19 -97 0
-3 19 97 0
c gate 98 -96 -97 0
-96 -98 0
-97 -98 0
96 97 98 0
c gate 99 -95 98 0
-95 -99 0
98 -99 0
95 -98 99 0
c gate 100 -4 20 0
-4 -100 0
20 -100 0
4 -20 100 0
c gate 101 -3 19 0
-3 -101 0
19 -101 0
3 -19 101 0
c gate 102 -100 -101 0
-100 -102 0
-101 -102 0
100 101 102 0
c gate 103 -99 102 0
-99 -103 0
102 -103 0
99 -102 103 0
c gate 104 4 -20 0
4 -104 0
-20 -104 0
-4 20 104 0
c gate 105 5 -21 0
5 -105 0
-21 -105 0
-5 21 105 0
c gate 106 -104 -105 0
-104 -106 0
-105 -106 0
104 105 106 0
c gate 107 -103 106 0
-103 -107 0
106 -107 0
103 -106 107 0
c gate 108 -6 22 0
-6 -108 0
22 -108 0
6 -22 108 0
c gate 109 -5 21 0
-5 -109 0
21 -109 0
5 -21 109 0
c gate 110 -108 -109 0
-108 -110 0
-109 -110 0
108 109 110 0
c gate 111 -107 110 0
-107 -111 0
110 -111 0
107 -110 111 0
c gate 112 7 -23 0
7 -112 0
-23 -112 0
-7 23 112 0
c gate 113 6 -22 0
6 -113 0
-22 -113 0
-6 22 113 0
c gate 114 -112 -113 0
-112 -114 0
-113 -114 0
112 113 114 0
c gate 115 -111 114 0
-111 -115 0
114 -115 0
111 -114 115 0
c gate 116 -36 -39 0
-36 -116 0
-39 -116 0
36 39 116 0
c gate 117 -7 23 0
-7 -117 0
23 -117 0
7 -23 117 0
c gate 118 -116 -117 0
-116 -118 0
-117 -118 0
116 117 118 0
c gate 119 -115 118 0
-115 -119 0
118 -119 0
115 -118 119 0
c gate 120 -92 119 0
-92 -120 0
119 -120 0
92 -119 120 0
c gate 121 -44 120 0
-44 -121 0
120 -121 0
44 -120 121 0
c gate 122 -16 -32 0
-16 -122 0
-32 -122 0
16 32 122 0
c gate 123 16 32 0
16 -123 0
32 -123 0
-16 -32 123 0
c gate 124 -122 -123 0
-122 -124 0
-123 -124 0
122 123 124 0
c gate 125 -14 -30 0
-14 -125 0
-30 -125 0
14 30 125 0
c gate 126 14 30 0
14 -126 0
30 -126 0
-14 -30 126 0
c gate 127 -125 -126 0
-125 -127 0
-126 -127 0
125 126 127 0
c gate 128 15 -31 0
15 -128 0
-31 -128 0
-15 31 128 0
c gate 129 -15 31 0
-15 -129 0
31 -129 0
15 -31 129 0
c gate 130 -128 -129 0
-128 -130 0
-129 -130 0
128 129 130 0
c gate 131 127 -130 0
127 -131 0
-130 -131 0
-127 130 131 0
c gate 132 124 131 0
124 -132 0
131 -132 0
-124 -131 132 0
c gate 133 85 -132 0
85 -133 0
-132 -133 0
-85 132 133 0
c gate 134 89 -133 0
89 -134 0
-133 -134 0
-89 133 134 0
c gate 135 -81 -116 0
-81 -135 0
-116 -135 0
81 116 135 0
c gate 136 -91 -135 0
-91 -136 0
-135 -136 0
91 135 136 0
c gate 137 -134 136 0
-134 -137 0
136 -137 0
134 -136 137 0
c gate 138 -119 -137 0
-119 -138 0
-137 -138 0
119 137 138 0
c gate 139 -121 -138 0
-121 -139 0
-138 -139 0
121 138 139 0
c gate 140 -33 -76 0
-33 -140 0
-76 -140 0
33 76 140 0
c gate 141 121 140 0
121 -141 0
140 -141 0
-121 -140 141 0
c gate 142 -139 -141 0
-139 -142 0
-141 -142 0
139 141 142 0
c gate 143 -10 26 0
-10 -143 0
26 -143 0
10 -26 143 0
c gate 144 8 -24 0
8 -144 0
-24 -144 0
-8 24 144 0
c gate 145 -92 144 0
-92 -145 0
144 -145 0
92 -144 145 0
c gate 146 9 -25 0
9 -146 0
-25 -146 0
-9 25 146 0
c gate 147 -145 -146 0
-145 -147 0
-146 -147 0
145 146 147 0
c gate 148 -120 147 0
-120 -148 0
147 -148 0
120 -147 148 0
c gate 149 -143 -148 0
-143 -149 0
-148 -149 0
143 148 149 0
c gate 150 10 -26 0
10 -150 0
-26 -150 0
-10 26 150 0
c gate 151 -140 -150 0
-140 -151 0
-150 -151 0
140 150 151 0
c gate 152 -149 151 0
-149 -152 0
151 -152 0
149 -151 152 0
c gate 153 -142 -152 0
-142 -153 0
-152 -153 0
142 152 153 0
c gate 154 -79 -84 0
-79 -154 0
-84 -154 0
79 84 154 0
c gate 155 -127 130 0
-127 -155 0
130 -155 0
127 -130 155 0
c gate 156 -124 155 0
-124 -156 0
155 -156 0
124 -155 156 0
c gate 157 154 156 0
154 -157 0
156 -157 0
-154 -156 157 0
c gate 158 152 157 0
152 -158 0
157 -158 0
-152 -157 158 0
c gate 159 -153 -158 0
-153 -159 0
-158 -159 0
153 158 159 0
c gate 160 -91 -159 0
-91 -160 0
-159 -160 0
91 159 160 0
c gate 161 89 -160 0
89 -161 0
-160 -161 0
-89 160 161 0
c gate 162 -89 -159 0
-89 -162 0
-159 -162 0
89 159 162 0
c gate 163 -161 -162 0
-161 -163 0
-162 -163 0
161 162 163 0
c gate 164 85 -163 0
85 -164 0
-163 -164 0
-85 163 164 0
c gate 165 -85 163 0
-85 -165 0
163 -165 0
85 -163 165 0
c gate 166 -164 -165 0
-164 -166 0
-165 -166 0
164 165 166 0
c PO
-166 0
